DIMACS2
40 139 231 275 115 174 168 179 102 23 313 60 57 285 252 238 239 97 148 7 203 195 286 178 9 144 52 199 303 114 272 244 268 53 188 75 152 56 50 40 5
p edge 320 322
e 0 132 1.0
e 1 293 2.0
e 2 163 2.0
e 2 0 1.0
e 3 242 1.0
e 4 184 1.0
e 5 235 44.0
e 6 315 4.0
e 7 114 19.0
e 8 69 1.0
e 8 2 1.0
e 9 58 43.0
e 10 297 1.0
e 11 299 1.0
e 12 159 1.0
e 13 22 1.0
e 14 148 13.0
e 15 286 36.0
e 16 317 5.0
e 17 120 1.0
e 18 126 1.0
e 19 132 1.0
e 20 57 18.0
e 21 177 1.0
e 22 86 1.0
e 23 64 33.0
e 24 144 29.0
e 25 311 2.0
e 26 60 39.0
e 27 179 7.0
e 28 241 1.0
e 29 112 1.0
e 30 151 1.0
e 31 163 1.0
e 32 267 4.0
e 33 197 1.0
e 34 16 2.0
e 35 199 48.0
e 36 53 44.0
e 37 25 4.0
e 38 45 2.0
e 39 295 4.0
e 40 180 11.0
e 41 51 2.0
e 42 59 1.0
e 43 71 2.0
e 44 86 1.0
e 45 240 2.0
e 46 68 1.0
e 47 8 1.0
e 48 152 2.0
e 49 107 1.0
e 50 5 26.0
e 51 317 1.0
e 52 147 48.0
e 53 201 4.0
e 54 230 1.0
e 55 189 1.0
e 56 281 29.0
e 57 233 37.0
e 58 311 8.0
e 59 96 1.0
e 60 219 8.0
e 61 141 1.0
e 62 180 1.0
e 63 245 1.0
e 64 239 29.0
e 65 25 2.0
e 66 267 1.0
e 67 196 2.0
e 68 214 1.0
e 69 70 10.0
e 70 8 12.0
e 71 240 1.0
e 72 103 8.0
e 73 97 35.0
e 74 12 1.0
e 75 129 2.0
e 76 314 1.0
e 77 153 2.0
e 78 238 49.0
e 79 52 36.0
e 80 210 1.0
e 81 258 1.0
e 82 316 1.0
e 83 18 1.0
e 84 290 2.0
e 85 223 1.0
e 86 28 1.0
e 87 58 2.0
e 88 113 7.0
e 89 192 1.0
e 90 20 1.0
e 91 312 2.0
e 92 246 1.0
e 93 276 8.0
e 94 219 3.0
e 95 314 2.0
e 96 242 2.0
e 97 52 15.0
e 98 209 7.0
e 99 54 3.0
e 100 205 5.0
e 101 271 1.0
e 102 161 49.0
e 103 273 8.0
e 104 88 1.0
e 105 140 1.0
e 106 175 1.0
e 107 267 1.0
e 108 295 4.0
e 109 306 1.0
e 110 290 1.0
e 111 95 2.0
e 112 15 1.0
e 113 46 11.0
e 114 36 5.0
e 115 290 34.0
e 116 206 2.0
e 117 201 1.0
e 118 24 3.0
e 119 280 1.0
e 120 182 1.0
e 121 226 1.0
e 122 50 11.0
e 123 50 27.0
e 124 275 32.0
e 125 196 1.0
e 126 67 1.0
e 127 267 1.0
e 128 2 5.0
e 129 123 3.0
e 130 278 2.0
e 131 177 1.0
e 132 277 1.0
e 133 238 39.0
e 134 102 11.0
e 135 295 5.0
e 136 246 1.0
e 137 1 1.0
e 138 218 1.0
e 139 288 17.0
e 140 74 1.0
e 141 303 9.0
e 142 263 1.0
e 143 201 6.0
e 144 93 41.0
e 145 75 5.0
e 146 241 1.0
e 147 14 1.0
e 148 272 45.0
e 149 295 3.0
e 150 230 1.0
e 151 171 1.0
e 152 113 25.0
e 153 78 2.0
e 154 8 2.0
e 155 0 1.0
e 156 180 1.0
e 157 295 2.0
e 158 192 1.0
e 159 276 1.0
e 160 250 1.0
e 161 11 2.0
e 162 45 1.0
e 163 152 7.0
e 164 181 1.0
e 165 163 3.0
e 166 309 10.0
e 167 305 5.0
e 168 239 33.0
e 169 146 1.0
e 170 156 1.0
e 171 22 1.0
e 172 173 5.0
e 173 176 7.0
e 174 37 2.0
e 175 66 1.0
e 176 227 11.0
e 177 78 1.0
e 178 188 43.0
e 179 75 26.0
e 180 275 9.0
e 181 208 1.0
e 182 171 1.0
e 183 290 1.0
e 184 101 1.0
e 185 44 1.0
e 186 116 1.0
e 187 177 3.0
e 188 261 23.0
e 189 308 1.0
e 190 73 2.0
e 191 255 1.0
e 192 45 1.0
e 193 216 2.0
e 194 125 1.0
e 195 32 16.0
e 196 288 2.0
e 197 262 1.0
e 198 126 1.0
e 199 103 24.0
e 200 213 1.0
e 201 204 4.0
e 202 76 1.0
e 203 176 36.0
e 204 185 1.0
e 205 134 9.0
e 206 312 4.0
e 207 5 40.0
e 208 185 1.0
e 209 102 49.0
e 210 163 1.0
e 211 106 1.0
e 212 204 1.0
e 213 243 1.0
e 214 105 2.0
e 215 268 39.0
e 216 207 1.0
e 217 251 2.0
e 218 266 1.0
e 219 297 9.0
e 220 222 1.0
e 221 206 1.0
e 222 165 1.0
e 223 290 1.0
e 224 283 3.0
e 225 59 1.0
e 226 308 1.0
e 227 126 1.0
e 228 257 1.0
e 229 281 1.0
e 230 77 1.0
e 231 82 49.0
e 232 254 1.0
e 233 108 3.0
e 234 104 2.0
e 235 125 1.0
e 236 13 1.0
e 237 213 1.0
e 238 115 32.0
e 239 20 14.0
e 240 144 4.0
e 241 139 29.0
e 242 82 1.0
e 243 82 1.0
e 244 316 3.0
e 245 62 1.0
e 246 184 1.0
e 247 188 22.0
e 248 70 1.0
e 249 112 1.0
e 250 29 1.0
e 251 227 5.0
e 252 128 30.0
e 253 146 1.0
e 254 184 1.0
e 255 286 15.0
e 256 278 2.0
e 257 50 34.0
e 258 16 1.0
e 259 86 1.0
e 260 50 20.0
e 261 20 1.0
e 262 88 3.0
e 263 29 1.0
e 264 238 17.0
e 265 150 2.0
e 266 18 1.0
e 267 240 1.0
e 268 15 14.0
e 269 9 5.0
e 270 103 7.0
e 271 187 1.0
e 272 230 49.0
e 273 263 2.0
e 274 191 2.0
e 275 11 37.0
e 276 87 1.0
e 277 236 1.0
e 278 40 34.0
e 279 127 1.0
e 280 272 9.0
e 281 167 3.0
e 282 109 1.0
e 283 195 21.0
e 284 46 6.0
e 285 241 48.0
e 286 54 43.0
e 287 72 3.0
e 288 19 1.0
e 289 181 1.0
e 290 288 2.0
e 291 99 1.0
e 292 311 1.0
e 293 230 2.0
e 294 122 1.0
e 295 203 3.0
e 296 25 1.0
e 297 164 6.0
e 298 186 1.0
e 299 317 3.0
e 300 6 2.0
e 301 30 1.0
e 302 283 2.0
e 303 70 49.0
e 304 150 1.0
e 305 195 30.0
e 306 296 1.0
e 307 118 4.0
e 308 229 2.0
e 309 231 10.0
e 310 42 1.0
e 311 158 1.0
e 312 173 2.0
e 313 165 6.0
e 314 69 1.0
e 315 23 11.0
e 316 286 20.0
e 317 9 30.0
e 318 45 3.0
e 319 200 1.0
